# Solution for model recoveryProblem_model
# Objective value = 12059
_r[32,Do_nothing,Do_nothing] 0
_r[32,Do_nothing,Recover] 0
_r[32,R1,Do_nothing] 0
_r[32,R1,Recover] 0
_r[32,R2,Do_nothing] 0
_r[32,R2,Recover] 0
_r[32,R3,Do_nothing] 1
_r[32,R3,Recover] 0
_r[70,Do_nothing,Do_nothing] 1
_r[70,Do_nothing,Recover] 0
_r[70,R1,Do_nothing] 0
_r[70,R1,Recover] 0
_r[70,R2,Do_nothing] 0
_r[70,R2,Recover] 0
_r[70,R3,Do_nothing] 0
_r[70,R3,Recover] 0
_r[5,Do_nothing,Do_nothing] 0
_r[5,Do_nothing,Recover] 0
_r[5,R1,Do_nothing] 0
_r[5,R1,Recover] 0
_r[5,R2,Do_nothing] 0
_r[5,R2,Recover] 0
_r[5,R3,Do_nothing] 1
_r[5,R3,Recover] 0
_r[85,Do_nothing,Do_nothing] 1
_r[85,Do_nothing,Recover] 0
_r[85,R1,Do_nothing] 0
_r[85,R1,Recover] 0
_r[85,R2,Do_nothing] 0
_r[85,R2,Recover] 0
_r[85,R3,Do_nothing] 0
_r[85,R3,Recover] 0
_r[71,Do_nothing,Do_nothing] 1
_r[71,Do_nothing,Recover] 0
_r[71,R1,Do_nothing] 0
_r[71,R1,Recover] 0
_r[71,R2,Do_nothing] 0
_r[71,R2,Recover] 0
_r[71,R3,Do_nothing] 0
_r[71,R3,Recover] 0
_r[92,Do_nothing,Do_nothing] 0
_r[92,Do_nothing,Recover] 0
_r[92,R1,Do_nothing] 0
_r[92,R1,Recover] 0
_r[92,R2,Do_nothing] 0
_r[92,R2,Recover] 0
_r[92,R3,Do_nothing] 0
_r[92,R3,Recover] 1
_r[38,Do_nothing,Do_nothing] 1
_r[38,Do_nothing,Recover] 0
_r[38,R1,Do_nothing] 0
_r[38,R1,Recover] 0
_r[38,R2,Do_nothing] 0
_r[38,R2,Recover] 0
_r[38,R3,Do_nothing] 0
_r[38,R3,Recover] 0
_r[21,Do_nothing,Do_nothing] 0
_r[21,Do_nothing,Recover] 0
_r[21,R1,Do_nothing] 0
_r[21,R1,Recover] 0
_r[21,R2,Do_nothing] 0
_r[21,R2,Recover] 0
_r[21,R3,Do_nothing] 1
_r[21,R3,Recover] 0
_r[41,Do_nothing,Do_nothing] 1
_r[41,Do_nothing,Recover] 0
_r[41,R1,Do_nothing] 0
_r[41,R1,Recover] 0
_r[41,R2,Do_nothing] 0
_r[41,R2,Recover] 0
_r[41,R3,Do_nothing] 0
_r[41,R3,Recover] 0
_r[56,Do_nothing,Do_nothing] 0
_r[56,Do_nothing,Recover] 0
_r[56,R1,Do_nothing] 0
_r[56,R1,Recover] 0
_r[56,R2,Do_nothing] 0
_r[56,R2,Recover] 0
_r[56,R3,Do_nothing] 1
_r[56,R3,Recover] 0
_r[80,Do_nothing,Do_nothing] 0
_r[80,Do_nothing,Recover] 0
_r[80,R1,Do_nothing] 0
_r[80,R1,Recover] 0
_r[80,R2,Do_nothing] 0
_r[80,R2,Recover] 0
_r[80,R3,Do_nothing] 1
_r[80,R3,Recover] 0
_r[62,Do_nothing,Do_nothing] 1
_r[62,Do_nothing,Recover] 0
_r[62,R1,Do_nothing] 0
_r[62,R1,Recover] 0
_r[62,R2,Do_nothing] 0
_r[62,R2,Recover] 0
_r[62,R3,Do_nothing] 0
_r[62,R3,Recover] 0
_r[20,Do_nothing,Do_nothing] 1
_r[20,Do_nothing,Recover] 0
_r[20,R1,Do_nothing] 0
_r[20,R1,Recover] 0
_r[20,R2,Do_nothing] 0
_r[20,R2,Recover] 0
_r[20,R3,Do_nothing] 0
_r[20,R3,Recover] 0
_r[10,Do_nothing,Do_nothing] 1
_r[10,Do_nothing,Recover] 0
_r[10,R1,Do_nothing] 0
_r[10,R1,Recover] 0
_r[10,R2,Do_nothing] 0
_r[10,R2,Recover] 0
_r[10,R3,Do_nothing] 0
_r[10,R3,Recover] 0
_r[55,Do_nothing,Do_nothing] 0
_r[55,Do_nothing,Recover] 0
_r[55,R1,Do_nothing] 0
_r[55,R1,Recover] 0
_r[55,R2,Do_nothing] 0
_r[55,R2,Recover] 0
_r[55,R3,Do_nothing] 1
_r[55,R3,Recover] 0
_r[36,Do_nothing,Do_nothing] 1
_r[36,Do_nothing,Recover] 0
_r[36,R1,Do_nothing] 0
_r[36,R1,Recover] 0
_r[36,R2,Do_nothing] 0
_r[36,R2,Recover] 0
_r[36,R3,Do_nothing] 0
_r[36,R3,Recover] 0
_r[44,Do_nothing,Do_nothing] 1
_r[44,Do_nothing,Recover] 0
_r[44,R1,Do_nothing] 0
_r[44,R1,Recover] 0
_r[44,R2,Do_nothing] 0
_r[44,R2,Recover] 0
_r[44,R3,Do_nothing] 0
_r[44,R3,Recover] 0
_r[48,Do_nothing,Do_nothing] 1
_r[48,Do_nothing,Recover] 0
_r[48,R1,Do_nothing] 0
_r[48,R1,Recover] 0
_r[48,R2,Do_nothing] 0
_r[48,R2,Recover] 0
_r[48,R3,Do_nothing] 0
_r[48,R3,Recover] 0
_r[8,Do_nothing,Do_nothing] 0
_r[8,Do_nothing,Recover] 0
_r[8,R1,Do_nothing] 0
_r[8,R1,Recover] 0
_r[8,R2,Do_nothing] 0
_r[8,R2,Recover] 0
_r[8,R3,Do_nothing] 1
_r[8,R3,Recover] 0
_r[15,Do_nothing,Do_nothing] 1
_r[15,Do_nothing,Recover] 0
_r[15,R1,Do_nothing] 0
_r[15,R1,Recover] 0
_r[15,R2,Do_nothing] 0
_r[15,R2,Recover] 0
_r[15,R3,Do_nothing] 0
_r[15,R3,Recover] 0
_r[61,Do_nothing,Do_nothing] 1
_r[61,Do_nothing,Recover] 0
_r[61,R1,Do_nothing] 0
_r[61,R1,Recover] 0
_r[61,R2,Do_nothing] 0
_r[61,R2,Recover] 0
_r[61,R3,Do_nothing] 0
_r[61,R3,Recover] 0
_r[78,Do_nothing,Do_nothing] 0
_r[78,Do_nothing,Recover] 0
_r[78,R1,Do_nothing] 0
_r[78,R1,Recover] 0
_r[78,R2,Do_nothing] 0
_r[78,R2,Recover] 0
_r[78,R3,Do_nothing] 1
_r[78,R3,Recover] 0
_r[34,Do_nothing,Do_nothing] 0
_r[34,Do_nothing,Recover] 0
_r[34,R1,Do_nothing] 0
_r[34,R1,Recover] 0
_r[34,R2,Do_nothing] 0
_r[34,R2,Recover] 0
_r[34,R3,Do_nothing] 1
_r[34,R3,Recover] 0
_r[100,Do_nothing,Do_nothing] 1
_r[100,Do_nothing,Recover] 0
_r[100,R1,Do_nothing] 0
_r[100,R1,Recover] 0
_r[100,R2,Do_nothing] 0
_r[100,R2,Recover] 0
_r[100,R3,Do_nothing] 0
_r[100,R3,Recover] 0
_r[90,Do_nothing,Do_nothing] 1
_r[90,Do_nothing,Recover] 0
_r[90,R1,Do_nothing] 0
_r[90,R1,Recover] 0
_r[90,R2,Do_nothing] 0
_r[90,R2,Recover] 0
_r[90,R3,Do_nothing] 0
_r[90,R3,Recover] 0
_r[64,Do_nothing,Do_nothing] 1
_r[64,Do_nothing,Recover] 0
_r[64,R1,Do_nothing] 0
_r[64,R1,Recover] 0
_r[64,R2,Do_nothing] 0
_r[64,R2,Recover] 0
_r[64,R3,Do_nothing] 0
_r[64,R3,Recover] 0
_r[79,Do_nothing,Do_nothing] 1
_r[79,Do_nothing,Recover] 0
_r[79,R1,Do_nothing] 0
_r[79,R1,Recover] 0
_r[79,R2,Do_nothing] 0
_r[79,R2,Recover] 0
_r[79,R3,Do_nothing] 0
_r[79,R3,Recover] 0
_r[1,Do_nothing,Do_nothing] 1
_r[1,Do_nothing,Recover] 0
_r[1,R1,Do_nothing] 0
_r[1,R1,Recover] 0
_r[1,R2,Do_nothing] 0
_r[1,R2,Recover] 0
_r[1,R3,Do_nothing] 0
_r[1,R3,Recover] 0
_r[22,Do_nothing,Do_nothing] 0
_r[22,Do_nothing,Recover] 0
_r[22,R1,Do_nothing] 0
_r[22,R1,Recover] 0
_r[22,R2,Do_nothing] 0
_r[22,R2,Recover] 0
_r[22,R3,Do_nothing] 1
_r[22,R3,Recover] 0
_r[31,Do_nothing,Do_nothing] 1
_r[31,Do_nothing,Recover] 0
_r[31,R1,Do_nothing] 0
_r[31,R1,Recover] 0
_r[31,R2,Do_nothing] 0
_r[31,R2,Recover] 0
_r[31,R3,Do_nothing] 0
_r[31,R3,Recover] 0
_r[54,Do_nothing,Do_nothing] 0
_r[54,Do_nothing,Recover] 0
_r[54,R1,Do_nothing] 0
_r[54,R1,Recover] 0
_r[54,R2,Do_nothing] 0
_r[54,R2,Recover] 0
_r[54,R3,Do_nothing] 1
_r[54,R3,Recover] 0
_r[82,Do_nothing,Do_nothing] 1
_r[82,Do_nothing,Recover] 0
_r[82,R1,Do_nothing] 0
_r[82,R1,Recover] 0
_r[82,R2,Do_nothing] 0
_r[82,R2,Recover] 0
_r[82,R3,Do_nothing] 0
_r[82,R3,Recover] 0
_r[11,Do_nothing,Do_nothing] 1
_r[11,Do_nothing,Recover] 0
_r[11,R1,Do_nothing] 0
_r[11,R1,Recover] 0
_r[11,R2,Do_nothing] 0
_r[11,R2,Recover] 0
_r[11,R3,Do_nothing] 0
_r[11,R3,Recover] 0
_r[75,Do_nothing,Do_nothing] 0
_r[75,Do_nothing,Recover] 0
_r[75,R1,Do_nothing] 0
_r[75,R1,Recover] 0
_r[75,R2,Do_nothing] 0
_r[75,R2,Recover] 0
_r[75,R3,Do_nothing] 1
_r[75,R3,Recover] 0
_r[50,Do_nothing,Do_nothing] 1
_r[50,Do_nothing,Recover] 0
_r[50,R1,Do_nothing] 0
_r[50,R1,Recover] 0
_r[50,R2,Do_nothing] 0
_r[50,R2,Recover] 0
_r[50,R3,Do_nothing] 0
_r[50,R3,Recover] 0
_r[19,Do_nothing,Do_nothing] 1
_r[19,Do_nothing,Recover] 0
_r[19,R1,Do_nothing] 0
_r[19,R1,Recover] 0
_r[19,R2,Do_nothing] 0
_r[19,R2,Recover] 0
_r[19,R3,Do_nothing] 0
_r[19,R3,Recover] 0
_r[99,Do_nothing,Do_nothing] 1
_r[99,Do_nothing,Recover] 0
_r[99,R1,Do_nothing] 0
_r[99,R1,Recover] 0
_r[99,R2,Do_nothing] 0
_r[99,R2,Recover] 0
_r[99,R3,Do_nothing] 0
_r[99,R3,Recover] 0
_r[72,Do_nothing,Do_nothing] 0
_r[72,Do_nothing,Recover] 0
_r[72,R1,Do_nothing] 0
_r[72,R1,Recover] 0
_r[72,R2,Do_nothing] 0
_r[72,R2,Recover] 0
_r[72,R3,Do_nothing] 1
_r[72,R3,Recover] 0
_r[47,Do_nothing,Do_nothing] 1
_r[47,Do_nothing,Recover] 0
_r[47,R1,Do_nothing] 0
_r[47,R1,Recover] 0
_r[47,R2,Do_nothing] 0
_r[47,R2,Recover] 0
_r[47,R3,Do_nothing] 0
_r[47,R3,Recover] 0
_r[49,Do_nothing,Do_nothing] 1
_r[49,Do_nothing,Recover] 0
_r[49,R1,Do_nothing] 0
_r[49,R1,Recover] 0
_r[49,R2,Do_nothing] 0
_r[49,R2,Recover] 0
_r[49,R3,Do_nothing] 0
_r[49,R3,Recover] 0
_r[77,Do_nothing,Do_nothing] 1
_r[77,Do_nothing,Recover] 0
_r[77,R1,Do_nothing] 0
_r[77,R1,Recover] 0
_r[77,R2,Do_nothing] 0
_r[77,R2,Recover] 0
_r[77,R3,Do_nothing] 0
_r[77,R3,Recover] 0
_r[95,Do_nothing,Do_nothing] 1
_r[95,Do_nothing,Recover] 0
_r[95,R1,Do_nothing] 0
_r[95,R1,Recover] 0
_r[95,R2,Do_nothing] 0
_r[95,R2,Recover] 0
_r[95,R3,Do_nothing] 0
_r[95,R3,Recover] 0
_r[98,Do_nothing,Do_nothing] 1
_r[98,Do_nothing,Recover] 0
_r[98,R1,Do_nothing] 0
_r[98,R1,Recover] 0
_r[98,R2,Do_nothing] 0
_r[98,R2,Recover] 0
_r[98,R3,Do_nothing] 0
_r[98,R3,Recover] 0
_r[53,Do_nothing,Do_nothing] 0
_r[53,Do_nothing,Recover] 0
_r[53,R1,Do_nothing] 0
_r[53,R1,Recover] 0
_r[53,R2,Do_nothing] 0
_r[53,R2,Recover] 0
_r[53,R3,Do_nothing] 1
_r[53,R3,Recover] 0
_r[65,Do_nothing,Do_nothing] 1
_r[65,Do_nothing,Recover] 0
_r[65,R1,Do_nothing] 0
_r[65,R1,Recover] 0
_r[65,R2,Do_nothing] 0
_r[65,R2,Recover] 0
_r[65,R3,Do_nothing] 0
_r[65,R3,Recover] 0
_r[63,Do_nothing,Do_nothing] 1
_r[63,Do_nothing,Recover] 0
_r[63,R1,Do_nothing] 0
_r[63,R1,Recover] 0
_r[63,R2,Do_nothing] 0
_r[63,R2,Recover] 0
_r[63,R3,Do_nothing] 0
_r[63,R3,Recover] 0
_r[14,Do_nothing,Do_nothing] 1
_r[14,Do_nothing,Recover] 0
_r[14,R1,Do_nothing] 0
_r[14,R1,Recover] 0
_r[14,R2,Do_nothing] 0
_r[14,R2,Recover] 0
_r[14,R3,Do_nothing] 0
_r[14,R3,Recover] 0
_r[23,Do_nothing,Do_nothing] 1
_r[23,Do_nothing,Recover] 0
_r[23,R1,Do_nothing] 0
_r[23,R1,Recover] 0
_r[23,R2,Do_nothing] 0
_r[23,R2,Recover] 0
_r[23,R3,Do_nothing] 0
_r[23,R3,Recover] 0
_r[93,Do_nothing,Do_nothing] 1
_r[93,Do_nothing,Recover] 0
_r[93,R1,Do_nothing] 0
_r[93,R1,Recover] 0
_r[93,R2,Do_nothing] 0
_r[93,R2,Recover] 0
_r[93,R3,Do_nothing] 0
_r[93,R3,Recover] 0
_r[28,Do_nothing,Do_nothing] 1
_r[28,Do_nothing,Recover] 0
_r[28,R1,Do_nothing] 0
_r[28,R1,Recover] 0
_r[28,R2,Do_nothing] 0
_r[28,R2,Recover] 0
_r[28,R3,Do_nothing] 0
_r[28,R3,Recover] 0
_r[2,Do_nothing,Do_nothing] 0
_r[2,Do_nothing,Recover] 0
_r[2,R1,Do_nothing] 0
_r[2,R1,Recover] 0
_r[2,R2,Do_nothing] 0
_r[2,R2,Recover] 0
_r[2,R3,Do_nothing] 1
_r[2,R3,Recover] 0
_r[81,Do_nothing,Do_nothing] 1
_r[81,Do_nothing,Recover] 0
_r[81,R1,Do_nothing] 0
_r[81,R1,Recover] 0
_r[81,R2,Do_nothing] 0
_r[81,R2,Recover] 0
_r[81,R3,Do_nothing] 0
_r[81,R3,Recover] 0
_r[45,Do_nothing,Do_nothing] 1
_r[45,Do_nothing,Recover] 0
_r[45,R1,Do_nothing] 0
_r[45,R1,Recover] 0
_r[45,R2,Do_nothing] 0
_r[45,R2,Recover] 0
_r[45,R3,Do_nothing] 0
_r[45,R3,Recover] 0
_r[88,Do_nothing,Do_nothing] 1
_r[88,Do_nothing,Recover] 0
_r[88,R1,Do_nothing] 0
_r[88,R1,Recover] 0
_r[88,R2,Do_nothing] 0
_r[88,R2,Recover] 0
_r[88,R3,Do_nothing] 0
_r[88,R3,Recover] 0
_r[89,Do_nothing,Do_nothing] 0
_r[89,Do_nothing,Recover] 0
_r[89,R1,Do_nothing] 0
_r[89,R1,Recover] 0
_r[89,R2,Do_nothing] 0
_r[89,R2,Recover] 0
_r[89,R3,Do_nothing] 1
_r[89,R3,Recover] 0
_r[25,Do_nothing,Do_nothing] 1
_r[25,Do_nothing,Recover] 0
_r[25,R1,Do_nothing] 0
_r[25,R1,Recover] 0
_r[25,R2,Do_nothing] 0
_r[25,R2,Recover] 0
_r[25,R3,Do_nothing] 0
_r[25,R3,Recover] 0
_r[91,Do_nothing,Do_nothing] 1
_r[91,Do_nothing,Recover] 0
_r[91,R1,Do_nothing] 0
_r[91,R1,Recover] 0
_r[91,R2,Do_nothing] 0
_r[91,R2,Recover] 0
_r[91,R3,Do_nothing] 0
_r[91,R3,Recover] 0
_r[43,Do_nothing,Do_nothing] 0
_r[43,Do_nothing,Recover] 0
_r[43,R1,Do_nothing] 0
_r[43,R1,Recover] 0
_r[43,R2,Do_nothing] 0
_r[43,R2,Recover] 0
_r[43,R3,Do_nothing] 1
_r[43,R3,Recover] 0
_r[76,Do_nothing,Do_nothing] 1
_r[76,Do_nothing,Recover] 0
_r[76,R1,Do_nothing] 0
_r[76,R1,Recover] 0
_r[76,R2,Do_nothing] 0
_r[76,R2,Recover] 0
_r[76,R3,Do_nothing] 0
_r[76,R3,Recover] 0
_r[42,Do_nothing,Do_nothing] 1
_r[42,Do_nothing,Recover] 0
_r[42,R1,Do_nothing] 0
_r[42,R1,Recover] 0
_r[42,R2,Do_nothing] 0
_r[42,R2,Recover] 0
_r[42,R3,Do_nothing] 0
_r[42,R3,Recover] 0
_r[7,Do_nothing,Do_nothing] 1
_r[7,Do_nothing,Recover] 0
_r[7,R1,Do_nothing] 0
_r[7,R1,Recover] 0
_r[7,R2,Do_nothing] 0
_r[7,R2,Recover] 0
_r[7,R3,Do_nothing] 0
_r[7,R3,Recover] 0
_r[17,Do_nothing,Do_nothing] 1
_r[17,Do_nothing,Recover] 0
_r[17,R1,Do_nothing] 0
_r[17,R1,Recover] 0
_r[17,R2,Do_nothing] 0
_r[17,R2,Recover] 0
_r[17,R3,Do_nothing] 0
_r[17,R3,Recover] 0
_r[37,Do_nothing,Do_nothing] 1
_r[37,Do_nothing,Recover] 0
_r[37,R1,Do_nothing] 0
_r[37,R1,Recover] 0
_r[37,R2,Do_nothing] 0
_r[37,R2,Recover] 0
_r[37,R3,Do_nothing] 0
_r[37,R3,Recover] 0
_r[26,Do_nothing,Do_nothing] 1
_r[26,Do_nothing,Recover] 0
_r[26,R1,Do_nothing] 0
_r[26,R1,Recover] 0
_r[26,R2,Do_nothing] 0
_r[26,R2,Recover] 0
_r[26,R3,Do_nothing] 0
_r[26,R3,Recover] 0
_r[9,Do_nothing,Do_nothing] 0
_r[9,Do_nothing,Recover] 0
_r[9,R1,Do_nothing] 0
_r[9,R1,Recover] 0
_r[9,R2,Do_nothing] 0
_r[9,R2,Recover] 0
_r[9,R3,Do_nothing] 1
_r[9,R3,Recover] 0
_r[60,Do_nothing,Do_nothing] 1
_r[60,Do_nothing,Recover] 0
_r[60,R1,Do_nothing] 0
_r[60,R1,Recover] 0
_r[60,R2,Do_nothing] 0
_r[60,R2,Recover] 0
_r[60,R3,Do_nothing] 0
_r[60,R3,Recover] 0
_r[16,Do_nothing,Do_nothing] 1
_r[16,Do_nothing,Recover] 0
_r[16,R1,Do_nothing] 0
_r[16,R1,Recover] 0
_r[16,R2,Do_nothing] 0
_r[16,R2,Recover] 0
_r[16,R3,Do_nothing] 0
_r[16,R3,Recover] 0
_r[83,Do_nothing,Do_nothing] 1
_r[83,Do_nothing,Recover] 0
_r[83,R1,Do_nothing] 0
_r[83,R1,Recover] 0
_r[83,R2,Do_nothing] 0
_r[83,R2,Recover] 0
_r[83,R3,Do_nothing] 0
_r[83,R3,Recover] 0
_r[13,Do_nothing,Do_nothing] 1
_r[13,Do_nothing,Recover] 0
_r[13,R1,Do_nothing] 0
_r[13,R1,Recover] 0
_r[13,R2,Do_nothing] 0
_r[13,R2,Recover] 0
_r[13,R3,Do_nothing] 0
_r[13,R3,Recover] 0
_r[67,Do_nothing,Do_nothing] 1
_r[67,Do_nothing,Recover] 0
_r[67,R1,Do_nothing] 0
_r[67,R1,Recover] 0
_r[67,R2,Do_nothing] 0
_r[67,R2,Recover] 0
_r[67,R3,Do_nothing] 0
_r[67,R3,Recover] 0
_r[59,Do_nothing,Do_nothing] 1
_r[59,Do_nothing,Recover] 0
_r[59,R1,Do_nothing] 0
_r[59,R1,Recover] 0
_r[59,R2,Do_nothing] 0
_r[59,R2,Recover] 0
_r[59,R3,Do_nothing] 0
_r[59,R3,Recover] 0
_r[58,Do_nothing,Do_nothing] 1
_r[58,Do_nothing,Recover] 0
_r[58,R1,Do_nothing] 0
_r[58,R1,Recover] 0
_r[58,R2,Do_nothing] 0
_r[58,R2,Recover] 0
_r[58,R3,Do_nothing] 0
_r[58,R3,Recover] 0
_r[4,Do_nothing,Do_nothing] 1
_r[4,Do_nothing,Recover] 0
_r[4,R1,Do_nothing] 0
_r[4,R1,Recover] 0
_r[4,R2,Do_nothing] 0
_r[4,R2,Recover] 0
_r[4,R3,Do_nothing] 0
_r[4,R3,Recover] 0
_r[68,Do_nothing,Do_nothing] 1
_r[68,Do_nothing,Recover] 0
_r[68,R1,Do_nothing] 0
_r[68,R1,Recover] 0
_r[68,R2,Do_nothing] 0
_r[68,R2,Recover] 0
_r[68,R3,Do_nothing] 0
_r[68,R3,Recover] 0
_r[87,Do_nothing,Do_nothing] 1
_r[87,Do_nothing,Recover] 0
_r[87,R1,Do_nothing] 0
_r[87,R1,Recover] 0
_r[87,R2,Do_nothing] 0
_r[87,R2,Recover] 0
_r[87,R3,Do_nothing] 0
_r[87,R3,Recover] 0
_r[40,Do_nothing,Do_nothing] 0
_r[40,Do_nothing,Recover] 0
_r[40,R1,Do_nothing] 0
_r[40,R1,Recover] 0
_r[40,R2,Do_nothing] 0
_r[40,R2,Recover] 0
_r[40,R3,Do_nothing] 1
_r[40,R3,Recover] 0
_r[30,Do_nothing,Do_nothing] 1
_r[30,Do_nothing,Recover] 0
_r[30,R1,Do_nothing] 0
_r[30,R1,Recover] 0
_r[30,R2,Do_nothing] 0
_r[30,R2,Recover] 0
_r[30,R3,Do_nothing] 0
_r[30,R3,Recover] 0
_r[27,Do_nothing,Do_nothing] 0
_r[27,Do_nothing,Recover] 0
_r[27,R1,Do_nothing] 0
_r[27,R1,Recover] 0
_r[27,R2,Do_nothing] 0
_r[27,R2,Recover] 0
_r[27,R3,Do_nothing] 1
_r[27,R3,Recover] 0
_r[73,Do_nothing,Do_nothing] 1
_r[73,Do_nothing,Recover] 0
_r[73,R1,Do_nothing] 0
_r[73,R1,Recover] 0
_r[73,R2,Do_nothing] 0
_r[73,R2,Recover] 0
_r[73,R3,Do_nothing] 0
_r[73,R3,Recover] 0
_r[84,Do_nothing,Do_nothing] 1
_r[84,Do_nothing,Recover] 0
_r[84,R1,Do_nothing] 0
_r[84,R1,Recover] 0
_r[84,R2,Do_nothing] 0
_r[84,R2,Recover] 0
_r[84,R3,Do_nothing] 0
_r[84,R3,Recover] 0
_r[35,Do_nothing,Do_nothing] 1
_r[35,Do_nothing,Recover] 0
_r[35,R1,Do_nothing] 0
_r[35,R1,Recover] 0
_r[35,R2,Do_nothing] 0
_r[35,R2,Recover] 0
_r[35,R3,Do_nothing] 0
_r[35,R3,Recover] 0
_r[46,Do_nothing,Do_nothing] 0
_r[46,Do_nothing,Recover] 0
_r[46,R1,Do_nothing] 0
_r[46,R1,Recover] 0
_r[46,R2,Do_nothing] 0
_r[46,R2,Recover] 0
_r[46,R3,Do_nothing] 1
_r[46,R3,Recover] 0
_r[39,Do_nothing,Do_nothing] 1
_r[39,Do_nothing,Recover] 0
_r[39,R1,Do_nothing] 0
_r[39,R1,Recover] 0
_r[39,R2,Do_nothing] 0
_r[39,R2,Recover] 0
_r[39,R3,Do_nothing] 0
_r[39,R3,Recover] 0
_r[51,Do_nothing,Do_nothing] 1
_r[51,Do_nothing,Recover] 0
_r[51,R1,Do_nothing] 0
_r[51,R1,Recover] 0
_r[51,R2,Do_nothing] 0
_r[51,R2,Recover] 0
_r[51,R3,Do_nothing] 0
_r[51,R3,Recover] 0
_r[52,Do_nothing,Do_nothing] 1
_r[52,Do_nothing,Recover] 0
_r[52,R1,Do_nothing] 0
_r[52,R1,Recover] 0
_r[52,R2,Do_nothing] 0
_r[52,R2,Recover] 0
_r[52,R3,Do_nothing] 0
_r[52,R3,Recover] 0
_r[6,Do_nothing,Do_nothing] 1
_r[6,Do_nothing,Recover] 0
_r[6,R1,Do_nothing] 0
_r[6,R1,Recover] 0
_r[6,R2,Do_nothing] 0
_r[6,R2,Recover] 0
_r[6,R3,Do_nothing] 0
_r[6,R3,Recover] 0
_r[96,Do_nothing,Do_nothing] 1
_r[96,Do_nothing,Recover] 0
_r[96,R1,Do_nothing] 0
_r[96,R1,Recover] 0
_r[96,R2,Do_nothing] 0
_r[96,R2,Recover] 0
_r[96,R3,Do_nothing] 0
_r[96,R3,Recover] 0
_r[74,Do_nothing,Do_nothing] 1
_r[74,Do_nothing,Recover] 0
_r[74,R1,Do_nothing] 0
_r[74,R1,Recover] 0
_r[74,R2,Do_nothing] 0
_r[74,R2,Recover] 0
_r[74,R3,Do_nothing] 0
_r[74,R3,Recover] 0
_r[86,Do_nothing,Do_nothing] 1
_r[86,Do_nothing,Recover] 0
_r[86,R1,Do_nothing] 0
_r[86,R1,Recover] 0
_r[86,R2,Do_nothing] 0
_r[86,R2,Recover] 0
_r[86,R3,Do_nothing] 0
_r[86,R3,Recover] 0
_r[29,Do_nothing,Do_nothing] 1
_r[29,Do_nothing,Recover] 0
_r[29,R1,Do_nothing] 0
_r[29,R1,Recover] 0
_r[29,R2,Do_nothing] 0
_r[29,R2,Recover] 0
_r[29,R3,Do_nothing] 0
_r[29,R3,Recover] 0
_r[18,Do_nothing,Do_nothing] 1
_r[18,Do_nothing,Recover] 0
_r[18,R1,Do_nothing] 0
_r[18,R1,Recover] 0
_r[18,R2,Do_nothing] 0
_r[18,R2,Recover] 0
_r[18,R3,Do_nothing] 0
_r[18,R3,Recover] 0
_r[24,Do_nothing,Do_nothing] 1
_r[24,Do_nothing,Recover] 0
_r[24,R1,Do_nothing] 0
_r[24,R1,Recover] 0
_r[24,R2,Do_nothing] 0
_r[24,R2,Recover] 0
_r[24,R3,Do_nothing] 0
_r[24,R3,Recover] 0
_r[94,Do_nothing,Do_nothing] 1
_r[94,Do_nothing,Recover] 0
_r[94,R1,Do_nothing] 0
_r[94,R1,Recover] 0
_r[94,R2,Do_nothing] 0
_r[94,R2,Recover] 0
_r[94,R3,Do_nothing] 0
_r[94,R3,Recover] 0
_r[33,Do_nothing,Do_nothing] 1
_r[33,Do_nothing,Recover] 0
_r[33,R1,Do_nothing] 0
_r[33,R1,Recover] 0
_r[33,R2,Do_nothing] 0
_r[33,R2,Recover] 0
_r[33,R3,Do_nothing] 0
_r[33,R3,Recover] 0
_r[12,Do_nothing,Do_nothing] 1
_r[12,Do_nothing,Recover] 0
_r[12,R1,Do_nothing] 0
_r[12,R1,Recover] 0
_r[12,R2,Do_nothing] 0
_r[12,R2,Recover] 0
_r[12,R3,Do_nothing] 0
_r[12,R3,Recover] 0
_r[57,Do_nothing,Do_nothing] 1
_r[57,Do_nothing,Recover] 0
_r[57,R1,Do_nothing] 0
_r[57,R1,Recover] 0
_r[57,R2,Do_nothing] 0
_r[57,R2,Recover] 0
_r[57,R3,Do_nothing] 0
_r[57,R3,Recover] 0
_r[97,Do_nothing,Do_nothing] 1
_r[97,Do_nothing,Recover] 0
_r[97,R1,Do_nothing] 0
_r[97,R1,Recover] 0
_r[97,R2,Do_nothing] 0
_r[97,R2,Recover] 0
_r[97,R3,Do_nothing] 0
_r[97,R3,Recover] 0
_r[69,Do_nothing,Do_nothing] 1
_r[69,Do_nothing,Recover] 0
_r[69,R1,Do_nothing] 0
_r[69,R1,Recover] 0
_r[69,R2,Do_nothing] 0
_r[69,R2,Recover] 0
_r[69,R3,Do_nothing] 0
_r[69,R3,Recover] 0
_r[3,Do_nothing,Do_nothing] 1
_r[3,Do_nothing,Recover] 0
_r[3,R1,Do_nothing] 0
_r[3,R1,Recover] 0
_r[3,R2,Do_nothing] 0
_r[3,R2,Recover] 0
_r[3,R3,Do_nothing] 0
_r[3,R3,Recover] 0
_r[66,Do_nothing,Do_nothing] 1
_r[66,Do_nothing,Recover] 0
_r[66,R1,Do_nothing] 0
_r[66,R1,Recover] 0
_r[66,R2,Do_nothing] 0
_r[66,R2,Recover] 0
_r[66,R3,Do_nothing] 0
_r[66,R3,Recover] 0
